C16H36P+ inherits OPLSCM1A {
  ### LAMMPS commands for initialization
  ### (These can be overridden later.)
  write_once("In Init") {
    atom_style full
  }
  write_once("In Settings") {
    pair_coeff @atom:type1_c_unk_a0d2a @atom:type1_c_unk_a0d2a 0.066 3.5000000
    pair_coeff @atom:type2_c_unk_a0d2a @atom:type2_c_unk_a0d2a 0.066 3.5000000
    pair_coeff @atom:type3_c_unk_a0d2a @atom:type3_c_unk_a0d2a 0.066 3.5000000
    pair_coeff @atom:type4_c_unk_a0d2a @atom:type4_c_unk_a0d2a 0.066 3.5000000
    pair_coeff @atom:type5_p_unk_a0d2a @atom:type5_p_unk_a0d2a 0.200 3.7400000
    pair_coeff @atom:type6_c_unk_a0d2a @atom:type6_c_unk_a0d2a 0.066 3.5000000
    pair_coeff @atom:type7_c_unk_a0d2a @atom:type7_c_unk_a0d2a 0.066 3.5000000
    pair_coeff @atom:type8_c_unk_a0d2a @atom:type8_c_unk_a0d2a 0.066 3.5000000
    pair_coeff @atom:type9_c_unk_a0d2a @atom:type9_c_unk_a0d2a 0.066 3.5000000
    pair_coeff @atom:type10_c_unk_a0d2a @atom:type10_c_unk_a0d2a 0.066 3.5000000
    pair_coeff @atom:type11_c_unk_a0d2a @atom:type11_c_unk_a0d2a 0.066 3.5000000
    pair_coeff @atom:type12_c_unk_a0d2a @atom:type12_c_unk_a0d2a 0.066 3.5000000
    pair_coeff @atom:type13_c_unk_a0d2a @atom:type13_c_unk_a0d2a 0.066 3.5000000
    pair_coeff @atom:type14_c_unk_a0d2a @atom:type14_c_unk_a0d2a 0.066 3.5000000
    pair_coeff @atom:type15_c_unk_a0d2a @atom:type15_c_unk_a0d2a 0.066 3.5000000
    pair_coeff @atom:type16_c_unk_a0d2a @atom:type16_c_unk_a0d2a 0.066 3.5000000
    pair_coeff @atom:type17_c_unk_a0d2a @atom:type17_c_unk_a0d2a 0.066 3.5000000
    pair_coeff @atom:type18_h_unk_a0d2a @atom:type18_h_unk_a0d2a 0.030 2.5000000
    pair_coeff @atom:type19_h_unk_a0d2a @atom:type19_h_unk_a0d2a 0.030 2.5000000
    pair_coeff @atom:type20_h_unk_a0d2a @atom:type20_h_unk_a0d2a 0.030 2.5000000
    pair_coeff @atom:type21_h_unk_a0d2a @atom:type21_h_unk_a0d2a 0.030 2.5000000
    pair_coeff @atom:type22_h_unk_a0d2a @atom:type22_h_unk_a0d2a 0.030 2.5000000
    pair_coeff @atom:type23_h_unk_a0d2a @atom:type23_h_unk_a0d2a 0.030 2.5000000
    pair_coeff @atom:type24_h_unk_a0d2a @atom:type24_h_unk_a0d2a 0.030 2.5000000
    pair_coeff @atom:type25_h_unk_a0d2a @atom:type25_h_unk_a0d2a 0.030 2.5000000
    pair_coeff @atom:type26_h_unk_a0d2a @atom:type26_h_unk_a0d2a 0.030 2.5000000
    pair_coeff @atom:type27_h_unk_a0d2a @atom:type27_h_unk_a0d2a 0.030 2.5000000
    pair_coeff @atom:type28_h_unk_a0d2a @atom:type28_h_unk_a0d2a 0.030 2.5000000
    pair_coeff @atom:type29_h_unk_a0d2a @atom:type29_h_unk_a0d2a 0.030 2.5000000
    pair_coeff @atom:type30_h_unk_a0d2a @atom:type30_h_unk_a0d2a 0.030 2.5000000
    pair_coeff @atom:type31_h_unk_a0d2a @atom:type31_h_unk_a0d2a 0.030 2.5000000
    pair_coeff @atom:type32_h_unk_a0d2a @atom:type32_h_unk_a0d2a 0.030 2.5000000
    pair_coeff @atom:type33_h_unk_a0d2a @atom:type33_h_unk_a0d2a 0.030 2.5000000
    pair_coeff @atom:type34_h_unk_a0d2a @atom:type34_h_unk_a0d2a 0.030 2.5000000
    pair_coeff @atom:type35_h_unk_a0d2a @atom:type35_h_unk_a0d2a 0.030 2.5000000
    pair_coeff @atom:type36_h_unk_a0d2a @atom:type36_h_unk_a0d2a 0.030 2.5000000
    pair_coeff @atom:type37_h_unk_a0d2a @atom:type37_h_unk_a0d2a 0.030 2.5000000
    pair_coeff @atom:type38_h_unk_a0d2a @atom:type38_h_unk_a0d2a 0.030 2.5000000
    pair_coeff @atom:type39_h_unk_a0d2a @atom:type39_h_unk_a0d2a 0.030 2.5000000
    pair_coeff @atom:type40_h_unk_a0d2a @atom:type40_h_unk_a0d2a 0.030 2.5000000
    pair_coeff @atom:type41_h_unk_a0d2a @atom:type41_h_unk_a0d2a 0.030 2.5000000
    pair_coeff @atom:type42_h_unk_a0d2a @atom:type42_h_unk_a0d2a 0.030 2.5000000
    pair_coeff @atom:type43_h_unk_a0d2a @atom:type43_h_unk_a0d2a 0.030 2.5000000
    pair_coeff @atom:type44_h_unk_a0d2a @atom:type44_h_unk_a0d2a 0.030 2.5000000
    pair_coeff @atom:type45_h_unk_a0d2a @atom:type45_h_unk_a0d2a 0.030 2.5000000
    pair_coeff @atom:type46_h_unk_a0d2a @atom:type46_h_unk_a0d2a 0.030 2.5000000
    pair_coeff @atom:type47_h_unk_a0d2a @atom:type47_h_unk_a0d2a 0.030 2.5000000
    pair_coeff @atom:type48_h_unk_a0d2a @atom:type48_h_unk_a0d2a 0.030 2.5000000
    pair_coeff @atom:type49_h_unk_a0d2a @atom:type49_h_unk_a0d2a 0.030 2.5000000
    pair_coeff @atom:type50_h_unk_a0d2a @atom:type50_h_unk_a0d2a 0.030 2.5000000
    pair_coeff @atom:type51_h_unk_a0d2a @atom:type51_h_unk_a0d2a 0.030 2.5000000
    pair_coeff @atom:type52_h_unk_a0d2a @atom:type52_h_unk_a0d2a 0.030 2.5000000
    pair_coeff @atom:type53_h_unk_a0d2a @atom:type53_h_unk_a0d2a 0.030 2.5000000
  }
  write_once("In Settings") {
    bond_coeff @bond:type1_unk_a0d2a 268.0000 1.5290
    bond_coeff @bond:type2_unk_a0d2a 268.0000 1.5290
    bond_coeff @bond:type3_unk_a0d2a 268.0000 1.5290
    bond_coeff @bond:type4_unk_a0d2a 212.0000 1.8200
    bond_coeff @bond:type5_unk_a0d2a 212.0000 1.8200
    bond_coeff @bond:type6_unk_a0d2a 268.0000 1.5290
    bond_coeff @bond:type7_unk_a0d2a 268.0000 1.5290
    bond_coeff @bond:type8_unk_a0d2a 268.0000 1.5290
    bond_coeff @bond:type9_unk_a0d2a 212.0000 1.8200
    bond_coeff @bond:type10_unk_a0d2a 268.0000 1.5290
    bond_coeff @bond:type11_unk_a0d2a 268.0000 1.5290
    bond_coeff @bond:type12_unk_a0d2a 268.0000 1.5290
    bond_coeff @bond:type13_unk_a0d2a 212.0000 1.8200
    bond_coeff @bond:type14_unk_a0d2a 268.0000 1.5290
    bond_coeff @bond:type15_unk_a0d2a 268.0000 1.5290
    bond_coeff @bond:type16_unk_a0d2a 268.0000 1.5290
    bond_coeff @bond:type17_unk_a0d2a 340.0000 1.0900
    bond_coeff @bond:type18_unk_a0d2a 340.0000 1.0900
    bond_coeff @bond:type19_unk_a0d2a 340.0000 1.0900
    bond_coeff @bond:type20_unk_a0d2a 340.0000 1.0900
    bond_coeff @bond:type21_unk_a0d2a 340.0000 1.0900
    bond_coeff @bond:type22_unk_a0d2a 340.0000 1.0900
    bond_coeff @bond:type23_unk_a0d2a 340.0000 1.0900
    bond_coeff @bond:type24_unk_a0d2a 340.0000 1.0900
    bond_coeff @bond:type25_unk_a0d2a 340.0000 1.0900
    bond_coeff @bond:type26_unk_a0d2a 340.0000 1.0900
    bond_coeff @bond:type27_unk_a0d2a 340.0000 1.0900
    bond_coeff @bond:type28_unk_a0d2a 340.0000 1.0900
    bond_coeff @bond:type29_unk_a0d2a 340.0000 1.0900
    bond_coeff @bond:type30_unk_a0d2a 340.0000 1.0900
    bond_coeff @bond:type31_unk_a0d2a 340.0000 1.0900
    bond_coeff @bond:type32_unk_a0d2a 340.0000 1.0900
    bond_coeff @bond:type33_unk_a0d2a 340.0000 1.0900
    bond_coeff @bond:type34_unk_a0d2a 340.0000 1.0900
    bond_coeff @bond:type35_unk_a0d2a 340.0000 1.0900
    bond_coeff @bond:type36_unk_a0d2a 340.0000 1.0900
    bond_coeff @bond:type37_unk_a0d2a 340.0000 1.0900
    bond_coeff @bond:type38_unk_a0d2a 340.0000 1.0900
    bond_coeff @bond:type39_unk_a0d2a 340.0000 1.0900
    bond_coeff @bond:type40_unk_a0d2a 340.0000 1.0900
    bond_coeff @bond:type41_unk_a0d2a 340.0000 1.0900
    bond_coeff @bond:type42_unk_a0d2a 340.0000 1.0900
    bond_coeff @bond:type43_unk_a0d2a 340.0000 1.0900
    bond_coeff @bond:type44_unk_a0d2a 340.0000 1.0900
    bond_coeff @bond:type45_unk_a0d2a 340.0000 1.0900
    bond_coeff @bond:type46_unk_a0d2a 340.0000 1.0900
    bond_coeff @bond:type47_unk_a0d2a 340.0000 1.0900
    bond_coeff @bond:type48_unk_a0d2a 340.0000 1.0900
    bond_coeff @bond:type49_unk_a0d2a 340.0000 1.0900
    bond_coeff @bond:type50_unk_a0d2a 340.0000 1.0900
    bond_coeff @bond:type51_unk_a0d2a 340.0000 1.0900
    bond_coeff @bond:type52_unk_a0d2a 340.0000 1.0900
  }
  write_once("In Settings") {
    angle_coeff @angle:type1_unk_a0d2a 58.350 112.700
    angle_coeff @angle:type2_unk_a0d2a 58.350 112.700
    angle_coeff @angle:type3_unk_a0d2a 43.000 109.500
    angle_coeff @angle:type4_unk_a0d2a 45.000 109.500
    angle_coeff @angle:type5_unk_a0d2a 43.000 109.500
    angle_coeff @angle:type6_unk_a0d2a 58.350 112.700
    angle_coeff @angle:type7_unk_a0d2a 58.350 112.700
    angle_coeff @angle:type8_unk_a0d2a 45.000 109.500
    angle_coeff @angle:type9_unk_a0d2a 43.000 109.500
    angle_coeff @angle:type10_unk_a0d2a 58.350 112.700
    angle_coeff @angle:type11_unk_a0d2a 58.350 112.700
    angle_coeff @angle:type12_unk_a0d2a 45.000 109.500
    angle_coeff @angle:type13_unk_a0d2a 43.000 109.500
    angle_coeff @angle:type14_unk_a0d2a 58.350 112.700
    angle_coeff @angle:type15_unk_a0d2a 58.350 112.700
    angle_coeff @angle:type16_unk_a0d2a 37.500 110.700
    angle_coeff @angle:type17_unk_a0d2a 37.500 110.700
    angle_coeff @angle:type18_unk_a0d2a 37.500 110.700
    angle_coeff @angle:type19_unk_a0d2a 37.500 110.700
    angle_coeff @angle:type20_unk_a0d2a 37.500 110.700
    angle_coeff @angle:type21_unk_a0d2a 37.500 110.700
    angle_coeff @angle:type22_unk_a0d2a 37.500 110.700
    angle_coeff @angle:type23_unk_a0d2a 37.500 110.700
    angle_coeff @angle:type24_unk_a0d2a 37.500 110.700
    angle_coeff @angle:type25_unk_a0d2a 41.000 109.500
    angle_coeff @angle:type26_unk_a0d2a 41.000 109.500
    angle_coeff @angle:type27_unk_a0d2a 37.500 110.700
    angle_coeff @angle:type28_unk_a0d2a 37.500 110.700
    angle_coeff @angle:type29_unk_a0d2a 37.500 110.700
    angle_coeff @angle:type30_unk_a0d2a 37.500 110.700
    angle_coeff @angle:type31_unk_a0d2a 37.500 110.700
    angle_coeff @angle:type32_unk_a0d2a 37.500 110.700
    angle_coeff @angle:type33_unk_a0d2a 37.500 110.700
    angle_coeff @angle:type34_unk_a0d2a 41.000 109.500
    angle_coeff @angle:type35_unk_a0d2a 41.000 109.500
    angle_coeff @angle:type36_unk_a0d2a 37.500 110.700
    angle_coeff @angle:type37_unk_a0d2a 37.500 110.700
    angle_coeff @angle:type38_unk_a0d2a 37.500 110.700
    angle_coeff @angle:type39_unk_a0d2a 37.500 110.700
    angle_coeff @angle:type40_unk_a0d2a 37.500 110.700
    angle_coeff @angle:type41_unk_a0d2a 37.500 110.700
    angle_coeff @angle:type42_unk_a0d2a 37.500 110.700
    angle_coeff @angle:type43_unk_a0d2a 41.000 109.500
    angle_coeff @angle:type44_unk_a0d2a 41.000 109.500
    angle_coeff @angle:type45_unk_a0d2a 37.500 110.700
    angle_coeff @angle:type46_unk_a0d2a 37.500 110.700
    angle_coeff @angle:type47_unk_a0d2a 37.500 110.700
    angle_coeff @angle:type48_unk_a0d2a 37.500 110.700
    angle_coeff @angle:type49_unk_a0d2a 37.500 110.700
    angle_coeff @angle:type50_unk_a0d2a 37.500 110.700
    angle_coeff @angle:type51_unk_a0d2a 37.500 110.700
    angle_coeff @angle:type52_unk_a0d2a 33.000 107.800
    angle_coeff @angle:type53_unk_a0d2a 33.000 107.800
    angle_coeff @angle:type54_unk_a0d2a 33.000 107.800
    angle_coeff @angle:type55_unk_a0d2a 33.000 107.800
    angle_coeff @angle:type56_unk_a0d2a 45.000 109.500
    angle_coeff @angle:type57_unk_a0d2a 37.500 110.700
    angle_coeff @angle:type58_unk_a0d2a 33.000 107.800
    angle_coeff @angle:type59_unk_a0d2a 37.500 110.700
    angle_coeff @angle:type60_unk_a0d2a 37.500 110.700
    angle_coeff @angle:type61_unk_a0d2a 37.500 110.700
    angle_coeff @angle:type62_unk_a0d2a 33.000 107.800
    angle_coeff @angle:type63_unk_a0d2a 37.500 110.700
    angle_coeff @angle:type64_unk_a0d2a 37.500 110.700
    angle_coeff @angle:type65_unk_a0d2a 33.000 107.800
    angle_coeff @angle:type66_unk_a0d2a 37.500 110.700
    angle_coeff @angle:type67_unk_a0d2a 45.000 109.500
    angle_coeff @angle:type68_unk_a0d2a 41.000 109.500
    angle_coeff @angle:type69_unk_a0d2a 37.500 110.700
    angle_coeff @angle:type70_unk_a0d2a 33.000 107.800
    angle_coeff @angle:type71_unk_a0d2a 33.000 107.800
    angle_coeff @angle:type72_unk_a0d2a 33.000 107.800
    angle_coeff @angle:type73_unk_a0d2a 37.500 110.700
    angle_coeff @angle:type74_unk_a0d2a 41.000 109.500
    angle_coeff @angle:type75_unk_a0d2a 37.500 110.700
    angle_coeff @angle:type76_unk_a0d2a 33.000 107.800
    angle_coeff @angle:type77_unk_a0d2a 33.000 107.800
    angle_coeff @angle:type78_unk_a0d2a 33.000 107.800
    angle_coeff @angle:type79_unk_a0d2a 33.000 107.800
    angle_coeff @angle:type80_unk_a0d2a 37.500 110.700
    angle_coeff @angle:type81_unk_a0d2a 33.000 107.800
    angle_coeff @angle:type82_unk_a0d2a 37.500 110.700
    angle_coeff @angle:type83_unk_a0d2a 37.500 110.700
    angle_coeff @angle:type84_unk_a0d2a 33.000 107.800
    angle_coeff @angle:type85_unk_a0d2a 45.000 109.500
    angle_coeff @angle:type86_unk_a0d2a 33.000 107.800
    angle_coeff @angle:type87_unk_a0d2a 37.500 110.700
    angle_coeff @angle:type88_unk_a0d2a 37.500 110.700
    angle_coeff @angle:type89_unk_a0d2a 37.500 110.700
    angle_coeff @angle:type90_unk_a0d2a 33.000 107.800
    angle_coeff @angle:type91_unk_a0d2a 33.000 107.800
    angle_coeff @angle:type92_unk_a0d2a 33.000 107.800
    angle_coeff @angle:type93_unk_a0d2a 33.000 107.800
    angle_coeff @angle:type94_unk_a0d2a 37.500 110.700
    angle_coeff @angle:type95_unk_a0d2a 37.500 110.700
    angle_coeff @angle:type96_unk_a0d2a 33.000 107.800
    angle_coeff @angle:type97_unk_a0d2a 37.500 110.700
    angle_coeff @angle:type98_unk_a0d2a 33.000 107.800
    angle_coeff @angle:type99_unk_a0d2a 33.000 107.800
    angle_coeff @angle:type100_unk_a0d2a 37.500 110.700
    angle_coeff @angle:type101_unk_a0d2a 37.500 110.700
    angle_coeff @angle:type102_unk_a0d2a 37.500 110.700
  }
  write_once("In Settings") {
    dihedral_coeff @dihedral:type1_unk_a0d2a opls 1.300 -0.200 0.200 0.000
    dihedral_coeff @dihedral:type2_unk_a0d2a opls 1.711 -0.500 0.663 0.000
    dihedral_coeff @dihedral:type3_unk_a0d2a opls 1.000 -0.500 0.500 0.000
    dihedral_coeff @dihedral:type4_unk_a0d2a opls 1.000 -0.500 0.500 0.000
    dihedral_coeff @dihedral:type5_unk_a0d2a opls 1.711 -0.500 0.663 0.000
    dihedral_coeff @dihedral:type6_unk_a0d2a opls 1.300 -0.200 0.200 0.000
    dihedral_coeff @dihedral:type7_unk_a0d2a opls 1.000 -0.500 0.500 0.000
    dihedral_coeff @dihedral:type8_unk_a0d2a opls 1.711 -0.500 0.663 0.000
    dihedral_coeff @dihedral:type9_unk_a0d2a opls 1.300 -0.200 0.200 0.000
    dihedral_coeff @dihedral:type10_unk_a0d2a opls 1.000 -0.500 0.500 0.000
    dihedral_coeff @dihedral:type11_unk_a0d2a opls 1.711 -0.500 0.663 0.000
    dihedral_coeff @dihedral:type12_unk_a0d2a opls 1.300 -0.200 0.200 0.000
    dihedral_coeff @dihedral:type13_unk_a0d2a opls 0.000 0.000 0.300 0.000
    dihedral_coeff @dihedral:type14_unk_a0d2a opls 0.000 0.000 0.300 0.000
    dihedral_coeff @dihedral:type15_unk_a0d2a opls 0.000 0.000 0.300 0.000
    dihedral_coeff @dihedral:type16_unk_a0d2a opls 0.000 0.000 0.300 0.000
    dihedral_coeff @dihedral:type17_unk_a0d2a opls 0.000 0.000 0.300 0.000
    dihedral_coeff @dihedral:type18_unk_a0d2a opls 0.000 0.000 0.300 0.000
    dihedral_coeff @dihedral:type19_unk_a0d2a opls 0.000 0.000 0.300 0.000
    dihedral_coeff @dihedral:type20_unk_a0d2a opls 0.000 0.000 0.300 0.000
    dihedral_coeff @dihedral:type21_unk_a0d2a opls 0.000 0.000 0.300 0.000
    dihedral_coeff @dihedral:type22_unk_a0d2a opls 0.000 0.000 0.300 0.000
    dihedral_coeff @dihedral:type23_unk_a0d2a opls 0.000 0.000 0.300 0.000
    dihedral_coeff @dihedral:type24_unk_a0d2a opls 0.000 0.000 0.300 0.000
    dihedral_coeff @dihedral:type25_unk_a0d2a opls 0.000 0.000 0.300 0.000
    dihedral_coeff @dihedral:type26_unk_a0d2a opls 0.000 0.000 0.300 0.000
    dihedral_coeff @dihedral:type27_unk_a0d2a opls 0.000 0.000 0.300 0.000
    dihedral_coeff @dihedral:type28_unk_a0d2a opls 0.000 0.000 0.300 0.000
    dihedral_coeff @dihedral:type29_unk_a0d2a opls 0.000 0.000 0.300 0.000
    dihedral_coeff @dihedral:type30_unk_a0d2a opls 0.000 0.000 0.300 0.000
    dihedral_coeff @dihedral:type31_unk_a0d2a opls 0.000 0.000 0.300 0.000
    dihedral_coeff @dihedral:type32_unk_a0d2a opls 0.000 0.000 0.300 0.000
    dihedral_coeff @dihedral:type33_unk_a0d2a opls 0.000 0.000 0.300 0.000
    dihedral_coeff @dihedral:type34_unk_a0d2a opls 0.000 0.000 0.300 0.000
    dihedral_coeff @dihedral:type35_unk_a0d2a opls 1.000 -0.500 0.500 0.000
    dihedral_coeff @dihedral:type36_unk_a0d2a opls 0.000 0.000 0.300 0.000
    dihedral_coeff @dihedral:type37_unk_a0d2a opls 0.000 0.000 0.300 0.000
    dihedral_coeff @dihedral:type38_unk_a0d2a opls 0.000 0.000 0.300 0.000
    dihedral_coeff @dihedral:type39_unk_a0d2a opls 0.000 0.000 0.300 0.000
    dihedral_coeff @dihedral:type40_unk_a0d2a opls 0.000 0.000 0.300 0.000
    dihedral_coeff @dihedral:type41_unk_a0d2a opls 0.000 0.000 0.300 0.000
    dihedral_coeff @dihedral:type42_unk_a0d2a opls 0.000 0.000 0.300 0.000
    dihedral_coeff @dihedral:type43_unk_a0d2a opls 0.000 0.000 0.300 0.000
    dihedral_coeff @dihedral:type44_unk_a0d2a opls 0.000 0.000 0.300 0.000
    dihedral_coeff @dihedral:type45_unk_a0d2a opls 0.000 0.000 0.300 0.000
    dihedral_coeff @dihedral:type46_unk_a0d2a opls 0.000 0.000 0.300 0.000
    dihedral_coeff @dihedral:type47_unk_a0d2a opls 0.000 0.000 0.300 0.000
    dihedral_coeff @dihedral:type48_unk_a0d2a opls 0.000 0.000 0.300 0.000
    dihedral_coeff @dihedral:type49_unk_a0d2a opls 0.000 0.000 0.300 0.000
    dihedral_coeff @dihedral:type50_unk_a0d2a opls 0.000 0.000 0.300 0.000
    dihedral_coeff @dihedral:type51_unk_a0d2a opls 1.000 -0.500 0.500 0.000
    dihedral_coeff @dihedral:type52_unk_a0d2a opls 0.000 0.000 0.300 0.000
    dihedral_coeff @dihedral:type53_unk_a0d2a opls 0.000 0.000 0.300 0.000
    dihedral_coeff @dihedral:type54_unk_a0d2a opls 0.000 0.000 0.300 0.000
    dihedral_coeff @dihedral:type55_unk_a0d2a opls 0.000 0.000 0.300 0.000
    dihedral_coeff @dihedral:type56_unk_a0d2a opls 0.000 0.000 0.300 0.000
    dihedral_coeff @dihedral:type57_unk_a0d2a opls 0.000 0.000 0.300 0.000
    dihedral_coeff @dihedral:type58_unk_a0d2a opls 0.000 0.000 0.300 0.000
    dihedral_coeff @dihedral:type59_unk_a0d2a opls 0.000 0.000 0.300 0.000
    dihedral_coeff @dihedral:type60_unk_a0d2a opls 0.000 0.000 0.300 0.000
    dihedral_coeff @dihedral:type61_unk_a0d2a opls 0.000 0.000 0.300 0.000
    dihedral_coeff @dihedral:type62_unk_a0d2a opls 0.000 0.000 0.300 0.000
    dihedral_coeff @dihedral:type63_unk_a0d2a opls 1.000 -0.500 0.500 0.000
    dihedral_coeff @dihedral:type64_unk_a0d2a opls 0.000 0.000 0.300 0.000
    dihedral_coeff @dihedral:type65_unk_a0d2a opls 0.000 0.000 0.300 0.000
    dihedral_coeff @dihedral:type66_unk_a0d2a opls 0.000 0.000 0.300 0.000
    dihedral_coeff @dihedral:type67_unk_a0d2a opls 0.000 0.000 0.300 0.000
    dihedral_coeff @dihedral:type68_unk_a0d2a opls 0.000 0.000 0.300 0.000
    dihedral_coeff @dihedral:type69_unk_a0d2a opls 0.000 0.000 0.300 0.000
    dihedral_coeff @dihedral:type70_unk_a0d2a opls 0.000 0.000 0.300 0.000
    dihedral_coeff @dihedral:type71_unk_a0d2a opls 0.000 0.000 0.300 0.000
    dihedral_coeff @dihedral:type72_unk_a0d2a opls 0.000 0.000 0.300 0.000
    dihedral_coeff @dihedral:type73_unk_a0d2a opls 0.000 0.000 0.300 0.000
    dihedral_coeff @dihedral:type74_unk_a0d2a opls 0.000 0.000 0.300 0.000
    dihedral_coeff @dihedral:type75_unk_a0d2a opls 0.000 0.000 0.300 0.000
    dihedral_coeff @dihedral:type76_unk_a0d2a opls 0.000 0.000 0.300 0.000
    dihedral_coeff @dihedral:type77_unk_a0d2a opls 1.000 -0.500 0.500 0.000
    dihedral_coeff @dihedral:type78_unk_a0d2a opls 0.000 0.000 0.300 0.000
    dihedral_coeff @dihedral:type79_unk_a0d2a opls 0.000 0.000 0.300 0.000
    dihedral_coeff @dihedral:type80_unk_a0d2a opls 0.000 0.000 0.300 0.000
    dihedral_coeff @dihedral:type81_unk_a0d2a opls 1.000 -0.500 0.500 0.000
    dihedral_coeff @dihedral:type82_unk_a0d2a opls 0.000 0.000 0.300 0.000
    dihedral_coeff @dihedral:type83_unk_a0d2a opls 0.000 0.000 0.300 0.000
    dihedral_coeff @dihedral:type84_unk_a0d2a opls 0.000 0.000 0.300 0.000
    dihedral_coeff @dihedral:type85_unk_a0d2a opls 0.000 0.000 0.300 0.000
    dihedral_coeff @dihedral:type86_unk_a0d2a opls 0.000 0.000 0.300 0.000
    dihedral_coeff @dihedral:type87_unk_a0d2a opls 0.000 0.000 0.300 0.000
    dihedral_coeff @dihedral:type88_unk_a0d2a opls 0.000 0.000 0.300 0.000
    dihedral_coeff @dihedral:type89_unk_a0d2a opls 0.000 0.000 0.300 0.000
    dihedral_coeff @dihedral:type90_unk_a0d2a opls 0.000 0.000 0.300 0.000
    dihedral_coeff @dihedral:type91_unk_a0d2a opls 0.000 0.000 0.300 0.000
    dihedral_coeff @dihedral:type92_unk_a0d2a opls 0.000 0.000 0.300 0.000
    dihedral_coeff @dihedral:type93_unk_a0d2a opls 0.000 0.000 0.300 0.000
    dihedral_coeff @dihedral:type94_unk_a0d2a opls 0.000 0.000 0.300 0.000
    dihedral_coeff @dihedral:type95_unk_a0d2a opls 0.000 0.000 0.300 0.000
    dihedral_coeff @dihedral:type96_unk_a0d2a opls 0.000 0.000 0.300 0.000
    dihedral_coeff @dihedral:type97_unk_a0d2a opls 0.000 0.000 0.300 0.000
    dihedral_coeff @dihedral:type98_unk_a0d2a opls 0.000 0.000 0.300 0.000
    dihedral_coeff @dihedral:type99_unk_a0d2a opls 0.000 0.000 0.300 0.000
    dihedral_coeff @dihedral:type100_unk_a0d2a opls 0.000 0.000 0.300 0.000
    dihedral_coeff @dihedral:type101_unk_a0d2a opls 0.000 0.000 0.300 0.000
    dihedral_coeff @dihedral:type102_unk_a0d2a opls 0.000 0.000 0.300 0.000
    dihedral_coeff @dihedral:type103_unk_a0d2a opls 0.000 0.000 0.300 0.000
    dihedral_coeff @dihedral:type104_unk_a0d2a opls 0.000 0.000 0.300 0.000
    dihedral_coeff @dihedral:type105_unk_a0d2a opls 0.000 0.000 0.300 0.000
    dihedral_coeff @dihedral:type106_unk_a0d2a opls 0.000 0.000 0.300 0.000
    dihedral_coeff @dihedral:type107_unk_a0d2a opls 0.000 0.000 0.300 0.000
    dihedral_coeff @dihedral:type108_unk_a0d2a opls 0.000 0.000 0.300 0.000
    dihedral_coeff @dihedral:type109_unk_a0d2a opls 0.000 0.000 0.300 0.000
    dihedral_coeff @dihedral:type110_unk_a0d2a opls 0.000 0.000 0.300 0.000
    dihedral_coeff @dihedral:type111_unk_a0d2a opls 0.000 0.000 0.300 0.000
    dihedral_coeff @dihedral:type112_unk_a0d2a opls 0.000 0.000 0.300 0.000
    dihedral_coeff @dihedral:type113_unk_a0d2a opls 1.000 -0.500 0.500 0.000
    dihedral_coeff @dihedral:type114_unk_a0d2a opls 0.000 0.000 0.300 0.000
    dihedral_coeff @dihedral:type115_unk_a0d2a opls 0.000 0.000 0.300 0.000
    dihedral_coeff @dihedral:type116_unk_a0d2a opls 0.000 0.000 0.300 0.000
    dihedral_coeff @dihedral:type117_unk_a0d2a opls 0.000 0.000 0.300 0.000
    dihedral_coeff @dihedral:type118_unk_a0d2a opls 0.000 0.000 0.300 0.000
    dihedral_coeff @dihedral:type119_unk_a0d2a opls 0.000 0.000 0.300 0.000
    dihedral_coeff @dihedral:type120_unk_a0d2a opls 0.000 0.000 0.300 0.000
    dihedral_coeff @dihedral:type121_unk_a0d2a opls 1.000 -0.500 0.500 0.000
    dihedral_coeff @dihedral:type122_unk_a0d2a opls 0.000 0.000 0.300 0.000
    dihedral_coeff @dihedral:type123_unk_a0d2a opls 0.000 0.000 0.300 0.000
    dihedral_coeff @dihedral:type124_unk_a0d2a opls 0.000 0.000 0.300 0.000
    dihedral_coeff @dihedral:type125_unk_a0d2a opls 0.000 0.000 0.300 0.000
    dihedral_coeff @dihedral:type126_unk_a0d2a opls 0.000 0.000 0.300 0.000
    dihedral_coeff @dihedral:type127_unk_a0d2a opls 0.000 0.000 0.300 0.000
    dihedral_coeff @dihedral:type128_unk_a0d2a opls 0.000 0.000 0.300 0.000
    dihedral_coeff @dihedral:type129_unk_a0d2a opls 0.000 0.000 0.300 0.000
    dihedral_coeff @dihedral:type130_unk_a0d2a opls 0.000 0.000 0.300 0.000
    dihedral_coeff @dihedral:type131_unk_a0d2a opls 0.000 0.000 0.300 0.000
    dihedral_coeff @dihedral:type132_unk_a0d2a opls 0.000 0.000 0.300 0.000
    dihedral_coeff @dihedral:type133_unk_a0d2a opls 0.000 0.000 0.300 0.000
    dihedral_coeff @dihedral:type134_unk_a0d2a opls 0.000 0.000 0.300 0.000
    dihedral_coeff @dihedral:type135_unk_a0d2a opls 0.000 0.000 0.300 0.000
    dihedral_coeff @dihedral:type136_unk_a0d2a opls 0.000 0.000 0.300 0.000
    dihedral_coeff @dihedral:type137_unk_a0d2a opls 0.000 0.000 0.300 0.000
    dihedral_coeff @dihedral:type138_unk_a0d2a opls 0.000 0.000 0.300 0.000
    dihedral_coeff @dihedral:type139_unk_a0d2a opls 0.000 0.000 0.300 0.000
    dihedral_coeff @dihedral:type140_unk_a0d2a opls 0.000 0.000 0.300 0.000
    dihedral_coeff @dihedral:type141_unk_a0d2a opls 0.000 0.000 0.300 0.000
    dihedral_coeff @dihedral:type142_unk_a0d2a opls 0.000 0.000 0.300 0.000
    dihedral_coeff @dihedral:type143_unk_a0d2a opls 0.000 0.000 0.300 0.000
    dihedral_coeff @dihedral:type144_unk_a0d2a opls 1.000 -0.500 0.500 0.000
  }
  write_once("In Settings") {
    improper_coeff @improper:type1_unk_a0d2a 0.000 -1 2
    improper_coeff @improper:type2_unk_a0d2a 0.000 -1 2
    improper_coeff @improper:type3_unk_a0d2a 0.000 -1 2
    improper_coeff @improper:type4_unk_a0d2a 0.000 -1 2
    improper_coeff @improper:type5_unk_a0d2a 0.000 -1 2
    improper_coeff @improper:type6_unk_a0d2a 0.000 -1 2
    improper_coeff @improper:type7_unk_a0d2a 0.000 -1 2
    improper_coeff @improper:type8_unk_a0d2a 0.000 -1 2
    improper_coeff @improper:type9_unk_a0d2a 0.000 -1 2
    improper_coeff @improper:type10_unk_a0d2a 0.000 -1 2
    improper_coeff @improper:type11_unk_a0d2a 0.000 -1 2
    improper_coeff @improper:type12_unk_a0d2a 0.000 -1 2
    improper_coeff @improper:type13_unk_a0d2a 0.000 -1 2
    improper_coeff @improper:type14_unk_a0d2a 0.000 -1 2
    improper_coeff @improper:type15_unk_a0d2a 0.000 -1 2
    improper_coeff @improper:type16_unk_a0d2a 0.000 -1 2
    improper_coeff @improper:type17_unk_a0d2a 0.000 -1 2
    improper_coeff @improper:type18_unk_a0d2a 0.000 -1 2
    improper_coeff @improper:type19_unk_a0d2a 0.000 -1 2
    improper_coeff @improper:type20_unk_a0d2a 0.000 -1 2
    improper_coeff @improper:type21_unk_a0d2a 0.000 -1 2
    improper_coeff @improper:type22_unk_a0d2a 0.000 -1 2
    improper_coeff @improper:type23_unk_a0d2a 0.000 -1 2
    improper_coeff @improper:type24_unk_a0d2a 0.000 -1 2
    improper_coeff @improper:type25_unk_a0d2a 0.000 -1 2
    improper_coeff @improper:type26_unk_a0d2a 0.000 -1 2
    improper_coeff @improper:type27_unk_a0d2a 0.000 -1 2
    improper_coeff @improper:type28_unk_a0d2a 0.000 -1 2
    improper_coeff @improper:type29_unk_a0d2a 0.000 -1 2
    improper_coeff @improper:type30_unk_a0d2a 0.000 -1 2
    improper_coeff @improper:type31_unk_a0d2a 0.000 -1 2
    improper_coeff @improper:type32_unk_a0d2a 0.000 -1 2
    improper_coeff @improper:type33_unk_a0d2a 0.000 -1 2
    improper_coeff @improper:type34_unk_a0d2a 0.000 -1 2
  }
  ### DATA sections
  write_once("Data Masses") {
    @atom:type1_c_unk_a0d2a 12.011
    @atom:type2_c_unk_a0d2a 12.011
    @atom:type3_c_unk_a0d2a 12.011
    @atom:type4_c_unk_a0d2a 12.011
    @atom:type5_p_unk_a0d2a 30.974
    @atom:type6_c_unk_a0d2a 12.011
    @atom:type7_c_unk_a0d2a 12.011
    @atom:type8_c_unk_a0d2a 12.011
    @atom:type9_c_unk_a0d2a 12.011
    @atom:type10_c_unk_a0d2a 12.011
    @atom:type11_c_unk_a0d2a 12.011
    @atom:type12_c_unk_a0d2a 12.011
    @atom:type13_c_unk_a0d2a 12.011
    @atom:type14_c_unk_a0d2a 12.011
    @atom:type15_c_unk_a0d2a 12.011
    @atom:type16_c_unk_a0d2a 12.011
    @atom:type17_c_unk_a0d2a 12.011
    @atom:type18_h_unk_a0d2a 1.008
    @atom:type19_h_unk_a0d2a 1.008
    @atom:type20_h_unk_a0d2a 1.008
    @atom:type21_h_unk_a0d2a 1.008
    @atom:type22_h_unk_a0d2a 1.008
    @atom:type23_h_unk_a0d2a 1.008
    @atom:type24_h_unk_a0d2a 1.008
    @atom:type25_h_unk_a0d2a 1.008
    @atom:type26_h_unk_a0d2a 1.008
    @atom:type27_h_unk_a0d2a 1.008
    @atom:type28_h_unk_a0d2a 1.008
    @atom:type29_h_unk_a0d2a 1.008
    @atom:type30_h_unk_a0d2a 1.008
    @atom:type31_h_unk_a0d2a 1.008
    @atom:type32_h_unk_a0d2a 1.008
    @atom:type33_h_unk_a0d2a 1.008
    @atom:type34_h_unk_a0d2a 1.008
    @atom:type35_h_unk_a0d2a 1.008
    @atom:type36_h_unk_a0d2a 1.008
    @atom:type37_h_unk_a0d2a 1.008
    @atom:type38_h_unk_a0d2a 1.008
    @atom:type39_h_unk_a0d2a 1.008
    @atom:type40_h_unk_a0d2a 1.008
    @atom:type41_h_unk_a0d2a 1.008
    @atom:type42_h_unk_a0d2a 1.008
    @atom:type43_h_unk_a0d2a 1.008
    @atom:type44_h_unk_a0d2a 1.008
    @atom:type45_h_unk_a0d2a 1.008
    @atom:type46_h_unk_a0d2a 1.008
    @atom:type47_h_unk_a0d2a 1.008
    @atom:type48_h_unk_a0d2a 1.008
    @atom:type49_h_unk_a0d2a 1.008
    @atom:type50_h_unk_a0d2a 1.008
    @atom:type51_h_unk_a0d2a 1.008
    @atom:type52_h_unk_a0d2a 1.008
    @atom:type53_h_unk_a0d2a 1.008
  }
  write("Data Atoms") {
    $atom:id1 $mol:m1 @atom:type1_c_unk_a0d2a -0.21490000 1.000 1.00000 0.00000
    $atom:id2 $mol:m1 @atom:type2_c_unk_a0d2a -0.15200000 -0.530 1.00000 0.00000
    $atom:id3 $mol:m1 @atom:type3_c_unk_a0d2a -0.13910000 -1.039 1.00000 1.43172
    $atom:id4 $mol:m1 @atom:type4_c_unk_a0d2a -0.74390000 -2.540 0.77578 1.57086
    $atom:id5 $mol:m1 @atom:type5_p_unk_a0d2a 2.35630000 -3.151 0.66817 3.24277
    $atom:id6 $mol:m1 @atom:type6_c_unk_a0d2a -0.74560000 -2.543 -0.76547 4.11871
    $atom:id7 $mol:m1 @atom:type7_c_unk_a0d2a -0.13880000 -1.037 -0.85079 4.31529
    $atom:id8 $mol:m1 @atom:type8_c_unk_a0d2a -0.15050000 -0.564 -2.09098 5.06580
    $atom:id9 $mol:m1 @atom:type9_c_unk_a0d2a -0.21500000 0.961 -2.13556 5.07345
    $atom:id10 $mol:m1 @atom:type10_c_unk_a0d2a -0.75040000 -2.760 2.14620 4.15828
    $atom:id11 $mol:m1 @atom:type11_c_unk_a0d2a -0.13550000 -3.358 3.42746 3.57576
    $atom:id12 $mol:m1 @atom:type12_c_unk_a0d2a -0.15000000 -2.998 4.67011 4.38881
    $atom:id13 $mol:m1 @atom:type13_c_unk_a0d2a -0.21460000 -3.611 5.92124 3.77417
    $atom:id14 $mol:m1 @atom:type14_c_unk_a0d2a -0.74800000 -4.938 0.53167 3.18333
    $atom:id15 $mol:m1 @atom:type15_c_unk_a0d2a -0.13670000 -5.461 -0.70381 2.46203
    $atom:id16 $mol:m1 @atom:type16_c_unk_a0d2a -0.15020000 -6.987 -0.76188 2.44365
    $atom:id17 $mol:m1 @atom:type17_c_unk_a0d2a -0.21410000 -7.477 -2.00294 1.71665
    $atom:id18 $mol:m1 @atom:type18_h_unk_a0d2a 0.08470000 1.392 1.00129 -1.01710
    $atom:id19 $mol:m1 @atom:type19_h_unk_a0d2a 0.08470000 1.384 0.10271 0.50732
    $atom:id20 $mol:m1 @atom:type20_h_unk_a0d2a 0.08470000 1.390 1.87690 0.52733
    $atom:id21 $mol:m1 @atom:type21_h_unk_a0d2a 0.09340000 -0.878 0.10737 -0.53385
    $atom:id22 $mol:m1 @atom:type22_h_unk_a0d2a 0.09340000 -0.899 1.87961 -0.53446
    $atom:id23 $mol:m1 @atom:type23_h_unk_a0d2a 0.08680000 -0.750 1.92459 1.94020
    $atom:id24 $mol:m1 @atom:type24_h_unk_a0d2a 0.08680000 -0.512 0.19532 1.92626
    $atom:id25 $mol:m1 @atom:type25_h_unk_a0d2a 0.14980000 -2.816 -0.14260 1.04275
    $atom:id26 $mol:m1 @atom:type26_h_unk_a0d2a 0.14980000 -3.064 1.59496 1.06494
    $atom:id27 $mol:m1 @atom:type27_h_unk_a0d2a 0.14880000 -2.874 -1.66108 3.58233